c --- [ banner ] -------------------------------------------------------------
c 
c CaDiCaL Radically Simplified CDCL SAT Solver
c Copyright (c) 2016-2021 A. Biere, M. Fleury, N. Froleyks
c 
c Version 1.5.2 a5f15211db36c3956764e18194dd5bd63bf3b5e6
c g++ (GCC) 9.3.0 -Wall -Wextra -O3 -DNDEBUG
c Fri Oct 21 01:27:37 EDT 2022 Linux gra-login3 3.10.0-1160.66.1.el7.x86_64 x86_64
c 
c --- [ limit ] --------------------------------------------------------------
c 
c setting conflict limit to 200000 conflicts (due to '200000')
c 
c --- [ parsing input ] ------------------------------------------------------
c 
c reading DIMACS file from '33.cubes1937.adj'
c opening file to read '33.cubes1937.adj'
c found 'p cnf 6160 1595470' header
c parsed 1595470 clauses in 15.87 seconds process time
c closing file '33.cubes1937.adj'
c after reading 1457566739 bytes 1390.0 MB
c 
c --- [ options ] ------------------------------------------------------------
c 
c all options are set to their default value
c 
c --- [ solving ] ------------------------------------------------------------
c 
c time measured in process time since initialization
c 
c  seconds    reductions  redundant   irredundant
c          MB     restarts       trail       variables
c            level   conflicts       glue         remaining
c 
c * 15.88 1378  0 0   0    0    0  0% 0 1595422 2468 40%
c { 16.44 1416  0 0   0    0    0  0% 0 1595422 2468 40%
c i 17.71 1470 750 0   1   24   23 33% 5 1595422 2467 40%
c i 19.01 1499 515 0   7   47   45 33% 18 1595422 2466 40%
c i 19.60 1505 312 0  17   97   90 31% 42 1595422 2454 40%
c i 19.67 1505 301 0  19  101   93 31% 42 1595422 2394 39%
c i 19.95 1507 256 0  22  122  111 31% 38 1595422 2391 39%
c i 20.09 1507 229 0  22  141  128 31% 36 1595422 2390 39%
c i 20.09 1507 227 0  22  142  128 31% 36 1595422 2389 39%
c i 20.11 1507 218 0  22  149  134 31% 35 1595422 2388 39%
c i 20.17 1507 186 0  22  184  162 31% 33 1595422 2387 39%
c i 20.24 1507 159 0  22  219  188 31% 30 1595422 2386 39%
c i 20.34 1508 141 0  22  256  213 31% 30 1595422 2372 39%
c - 23.44 1484 126 1  22  301  237 31% 29 289393 2372 39%
c i 23.91 1380 110 1  23  371  298 31% 29 289393 2371 38%
c i 23.93 1380 105 1  23  398  317 31% 29 289393 2370 38%
c i 24.05 1380 96 1  23  463  368 31% 29 289393 2369 38%
c i 24.06 1380 96 1  23  464  368 31% 29 289393 2368 38%
c i 24.06 1380 95 1  23  468  371 30% 28 289393 2367 38%
c i 24.06 1380 95 1  23  469  371 30% 28 289393 2366 38%
c 
c  seconds    reductions  redundant   irredundant
c          MB     restarts       trail       variables
c            level   conflicts       glue         remaining
c 
c i 24.34 1381 92 1  29  510  409 30% 29 289393 2365 38%
c i 24.39 1381 92 1  30  517  415 30% 30 289393 2364 38%
c i 24.46 1381 89 1  32  537  427 30% 29 289393 2363 38%
c i 24.46 1381 89 1  32  538  427 30% 29 289393 2362 38%
c i 24.52 1381 89 1  32  546  433 30% 29 289393 2361 38%
c i 24.55 1381 88 1  32  550  436 30% 29 289393 2360 38%
c i 24.57 1381 87 1  32  560  444 30% 28 289393 2359 38%
c i 24.59 1381 82 1  32  613  485 30% 28 289393 2358 38%
c i 24.63 1381 81 1  32  628  499 30% 28 289393 2357 38%
c i 24.70 1381 80 1  32  651  520 30% 28 289393 2356 38%
c i 25.03 1381 75 1  42  756  610 30% 28 289393 2355 38%
c i 25.10 1381 74 1  44  778  630 30% 29 289393 2354 38%
c i 25.58 1381 73 1  57  845  685 30% 29 289393 2353 38%
c } 25.78 1381 65 1  64 1001  734 28% 27 289393 2353 38%
c [ 25.78 1381  0 1  64 1001  734  0% 0 289393 2353 38%
c O 25.78 1381  0 1  64 1002  734 11% 0 289393 2353 38%
c i 25.78 1381  0 1  64 1002  734 11% 0 289393 2322 38%
c i 25.78 1381  1 1  64 1003  734 11% 0 289393 2302 37%
c i 25.79 1381  2 1  64 1007  736 12% 1 289393 2291 37%
c i 25.92 1381 16 1  64 1037  759 27% 11 289393 2290 37%
c 
c  seconds    reductions  redundant   irredundant
c          MB     restarts       trail       variables
c            level   conflicts       glue         remaining
c 
c i 25.99 1381 21 1  64 1132  843 31% 16 289393 2289 37%
c i 26.00 1381 21 1  64 1158  859 31% 17 289393 2288 37%
c i 26.00 1381 21 1  64 1161  861 31% 17 289393 2287 37%
c i 26.00 1381 21 1  64 1162  861 31% 17 289393 2286 37%
c i 26.00 1381 21 1  64 1167  865 31% 16 289393 2285 37%
c i 26.00 1381 21 1  64 1172  869 31% 16 289393 2284 37%
c - 26.42 1486 21 2  64 1177  750 31% 16 223615 2284 37%
c i 26.47 1486 20 2  64 1189  759 31% 16 223615 2283 37%
c i 26.59 1486 21 2  64 1339  868 31% 16 223615 2282 37%
c i 26.61 1486 21 2  64 1386  896 31% 16 223615 2281 37%
c i 26.80 1486 21 2  64 1855 1155 32% 17 223615 2280 37%
c i 26.81 1486 21 2  64 1881 1160 32% 17 223615 2279 37%
c ] 26.83 1486 21 2  64 1951 1202 32% 17 223615 2279 37%
c 1 26.83 1486 21 2  64 1951 1202 32% 17 223615 2279 37%
c 
c --- [ writing output ] -----------------------------------------------------
c 
c writing simplified CNF to DIMACS file 'simp/33.cubes1937.adj.simp1'
c * 26.83 1486 21 2  64 1951 1202 32% 17 223615 2279 37%
c opening file to write 'simp/33.cubes1937.adj.simp1'
c writing 'p cnf 6160 223600' header
c closing file 'simp/33.cubes1937.adj.simp1'
c after writing 122548796 bytes 116.9 MB
c wrote 223600 clauses in 0.65 seconds process time
c 
c --- [ writing extension ] --------------------------------------------------
c 
c writing extension stack to 'simp/33.cubes1937.adj.ext1'
c opening file to write 'simp/33.cubes1937.adj.ext1'
c closing file 'simp/33.cubes1937.adj.ext1'
c after writing 10814 bytes 0.0 MB
c wrote 737 witnesses in 0.00 seconds process time
c 
c --- [ result ] -------------------------------------------------------------
c 
s SATISFIABLE
c 
c --- [ run-time profiling ] -------------------------------------------------
c 
c process time taken by individual solving procedures
c (percentage relative to process time for solving)
c 
c        15.87  144.89% parse
c        10.96  100.00% search
c         9.34   85.24% unstable
c         1.05    9.59% stable
c         0.57    5.17% lucky
c         0.00    0.00% simplify
c   =================================
c        10.96   39.86% solve
c 
c last line shows process time for solving
c (percentage relative to total process time)
c 
c --- [ statistics ] ---------------------------------------------------------
c 
c chronological:               541        27.73 %  of conflicts
c conflicts:                  1951       178.08    per second
c decisions:                 15753      1437.92    per second
c fixed:                       737        11.96 %  of all variables
c learned:                    1904        97.59 %  per conflict
c learned_lits:             349163       100.00 %  learned literals
c minimized:                     0         0.00 %  learned literals
c shrunken:                 234295        67.10 %  learned literals
c minishrunken:              21804         6.24 %  learned literals
c propagations:             329755         0.03 M  per second
c reduced:                     119         6.10 %  per conflict
c rephased:                      1      1951.00    interval
c restarts:                     64        30.48    interval
c stabilizing:                   1        48.69 %  of conflicts
c subsumed:                    535         0.02 %  of all clauses
c 
c seconds are measured in process time for solving
c 
c --- [ resources ] ----------------------------------------------------------
c 
c total process time since initialization:        27.49    seconds
c total real time since initialization:           29.38    seconds
c maximum resident set size of process:         1508.59    MB
c 
c --- [ shutting down ] ------------------------------------------------------
c 
c exit 10
WARNING! DIMACS header mismatch: wrong number of variables.
============================[ Problem Statistics ]=============================
|                                                                             |
|  Number of variables:          6120                                         |
|  Number of clauses:          223600                                         |
|  Parse time:                   1.60 s                                       |
|  Simplification time:          0.06 s                                       |
|                                                                             |
============================[ Search Statistics ]====================================================
| Conflicts |          ORIGINAL         |          LEARNT          | Num Sols |      SUBGRAPHS      |
|           |    Vars  Clauses Literals |    Limit  Clauses Lit/Cl |          | Canonical Noncanon. |
=====================================================================================================
|       100 |    6026   223600 26121221 |     2000      100    121 |        0 |        20         0 |
|       322 |    6026   223672 26122526 |     2000      322    101 |        0 |        36        72 |
|       890 |    6020   224015 26127111 |     2000      885     59 |        0 |       126       415 |
|      1640 |    6012   224428 26134161 |     2000     1627     55 |        0 |       278       828 |
|      3059 |    6006   225341 26144073 |     3594     2047     25 |        0 |       433      1741 |
|      6509 |    6003   228032 26176031 |     4998     3706     10 |        0 |       881      4432 |
|     12261 |    5990   232645 26226239 |     7556     3817      8 |        0 |      1492      9045 |
=====================================================================================================
Number of solutions   : 0
Canonical subgraphs   : 1581           (63 /sec)
          order  3    : 1              (125000 /sec)
          order  4    : 1              (500000 /sec)
          order  5    : 1              (142857 /sec)
          order  6    : 1              (34483 /sec)
          order  7    : 1              (5464 /sec)
          order  8    : 2              (1016 /sec)
          order  9    : 6              (302 /sec)
          order 10    : 21             (182 /sec)
          order 11    : 64             (124 /sec)
          order 12    : 258            (103 /sec)
          order 13    : 747            (76 /sec)
          order 14    : 442            (41 /sec)
          order 15    : 36             (34 /sec)
          order 16    : 0              (-nan /sec)
          order 17    : 0              (-nan /sec)
          order 18    : 0              (-nan /sec)
          order 19    : 0              (-nan /sec)
          order 20    : 0              (-nan /sec)
          order 21    : 0              (-nan /sec)
          order 22    : 0              (-nan /sec)
Noncanonical subgraphs: 10196          (2551 /sec)
          order  3    : 0              (-nan /sec)
          order  4    : 0              (-nan /sec)
          order  5    : 0              (-nan /sec)
          order  6    : 0              (-nan /sec)
          order  7    : 0              (-nan /sec)
          order  8    : 0              (-nan /sec)
          order  9    : 0              (-nan /sec)
          order 10    : 0              (-nan /sec)
          order 11    : 0              (-nan /sec)
          order 12    : 0              (-nan /sec)
          order 13    : 1622           (21567 /sec)
          order 14    : 6993           (2412 /sec)
          order 15    : 1286           (1496 /sec)
          order 16    : 295            (1803 /sec)
          order 17    : 0              (-nan /sec)
          order 18    : 0              (-nan /sec)
          order 19    : 0              (-nan /sec)
          order 20    : 0              (-nan /sec)
          order 21    : 0              (-nan /sec)
Canonicity checking   : 24.8984 s
Noncanonicity checking: 3.99742 s
Total canonicity time : 28.8958 s
database reductions   : 4
restarts              : 61
conflicts             : 13673          (415 /sec)
decisions             : 37537          (0.00 % random) (1138 /sec)
propagations          : 1536133        (46582 /sec)
conflict literals     : 267236         (49.91 % deleted)
actual reward         : 0.048456
Memory used           : 146.00 MB
CPU time              : 32.9772 s

UNSATISFIABLE
